(declare-fun a () Int)
(declare-fun b () Int)
(declare-fun c () Int)
(declare-fun d () Int)
(declare-fun e () Int)
(declare-fun f () Int)
(declare-fun g () Int)
(declare-fun h () Int)
(declare-fun i () Int)
(assert (or (and (>= b c e 0) (> (+ f g) 0) (= (+ f g (* a h)) 0 (+ (* (- 2) d) h))) (> i 0)))
(check-sat)
